db/inputs/54413029711286720771307271268120701.smt2
(set-logic QF_FP)
(declare-const x0 (_ FloatingPoint 11 53))
(declare-const x1 (_ FloatingPoint 11 53))
(declare-const x2 (_ FloatingPoint 11 53))
(declare-const x3 (_ FloatingPoint 11 53))
(declare-const x4 (_ FloatingPoint 11 53))
(declare-const x5 (_ FloatingPoint 11 53))
(declare-const x6 (_ FloatingPoint 11 53))
(declare-const x7 (_ FloatingPoint 11 53))
(declare-const x8 (_ FloatingPoint 11 53))
(declare-const x9 (_ FloatingPoint 11 53))
(declare-const x10 (_ FloatingPoint 11 53))
(declare-const x11 (_ FloatingPoint 11 53))
(declare-const x12 (_ FloatingPoint 11 53))
(declare-const x13 (_ FloatingPoint 11 53))
(declare-const x14 (_ FloatingPoint 11 53))
(assert (fp.eq (fp.div RNE x5 x11) (fp.sub RNE x7 x11)))
(assert (fp.geq (fp.sub RNE x6 x0) (fp.mul RNE x7 x11)))
(assert (fp.gt (fp.sub RNE x4 x13) (fp.sub RNE x3 x3)))
(assert (fp.leq (fp.neg x9) (fp.neg x5)))
(assert (fp.lt (fp.neg x9) (fp.sub RNE x6 x5)))
(assert (fp.leq (fp.add RNE x13 x1) (fp.div RNE x3 x11)))
(assert (fp.eq (fp.mul RNE x6 x13) (fp.mul RNE x4 x9)))
(assert (fp.eq (fp.add RNE x0 x2) (fp.mul RNE x9 x5)))
(check-sat)
