db/data/54413029711286720771307271268120701.z3.out
-------------------
2500.077265729
